18556	21830
18572	21826
18572	21826
18630	21824
18652	21822
18652	21822
18690	21820
18694	21818
18710	21816
18772	21814
18772	21814
18780	21812
18780	21812
18808	21810
18808	21810
18822	21808
18822	21808
18850	21806
18868	21804
18868	21804
18886	21802
18900	21800
18940	21798
18946	21796
18958	21794
18966	21792
18966	21792
18980	21790
18980	21790
18980	21790
19000	21788
19000	21788
19000	21788
19000	21788
19030	21786
19030	21786
19058	21784
19064	21782
19064	21782
19078	21780
19078	21780
19090	21778
19090	21778
19114	21776
19128	21774
19134	21772
19134	21772
19162	21770
19162	21770
19202	21768
19218	21762
19230	21760
19238	21758
19238	21758
19238	21758
19238	21758
19244	21756
19244	21756
19254	21754
19254	21754
19254	21754
19254	21754
19254	21754
19254	21754
19276	21752
19276	21752
19292	21750
19298	21748
19298	21748
19312	21746
19312	21746
19318	21744
19338	21742
19338	21742
19358	21738
19364	21736
19364	21736
19384	21734
19398	21732
19408	21730
19414	21726
19414	21726
19426	21724
19434	21722
19434	21722
19434	21722
19434	21722
19434	21722
19448	21720
19464	21716
19466	21714
19488	21712
19492	21710
19492	21710
19506	21708
19522	21706
19542	21702
19548	21698
19548	21698
19558	21696
19568	21694
19568	21694
19578	21692
19578	21692
19590	21688
19604	21686
19606	21684
19618	21682
19626	21680
19638	21678
19640	21676
19652	21674
19652	21674
19664	21670
19664	21670
19664	21670
19692	21668
19700	21662
19700	21662
19704	21660
19720	21658
19720	21658
19730	21654
19730	21654
19738	21650
19738	21650
19738	21650
19738	21650
19738	21650
19738	21650
19756	21648
19760	21646
19760	21646
19760	21646
19760	21646
19760	21646
19760	21646
19766	21644
19770	21642
19770	21642
19776	21640
19776	21640
19790	21638
19790	21638
19790	21638
19790	21638
19790	21638
19790	21638
19796	21636
19804	21634
19810	21630
19810	21630
19826	21628
19826	21628
19834	21624
19846	21622
19854	21618
19856	21616
19874	21614
19874	21614
19874	21614
19874	21614
19880	21612
19884	21608
19884	21608
19884	21608
19888	21606
19888	21606
19900	21604
19902	21602
19908	21600
19918	21598
19918	21598
19918	21598
19932	21594
19932	21594
19936	21592
19936	21592
19936	21592
19936	21592
19942	21590
19954	21588
19956	21586
19974	21580
19976	21578
19976	21578
19976	21578
19980	21576
19980	21576
19980	21576
19994	21572
19994	21572
20006	21570
20006	21570
20016	21566
20018	21562
20020	21560
20020	21560
20026	21558
20026	21558
20038	21556
20038	21556
20038	21556
20048	21550
20048	21550
20068	21548
20068	21548
20070	21544
20070	21544
20078	21540
20086	21536
20086	21536
20086	21536
20088	21534
20088	21534
20088	21534
20098	21532
20098	21532
20098	21532
20102	21530
20102	21530
20102	21530
20102	21530
20102	21530
20102	21530
20102	21530
20102	21530
20102	21530
20102	21530
20110	21528
20110	21528
20114	21526
20114	21526
20114	21526
20114	21526
20118	21524
20122	21522
20122	21522
20122	21522
20122	21522
20128	21520
20128	21520
20128	21520
20134	21518
20134	21518
20134	21518
20134	21518
20134	21518
20140	21516
20140	21516
20140	21516
20140	21516
20144	21514
20144	21514
20144	21514
20144	21514
20144	21514
20144	21514
20144	21514
20144	21514
20144	21514
20156	21510
20156	21510
20156	21510
20156	21510
20156	21510
20162	21506
20162	21506
20162	21506
20162	21506
20162	21506
20162	21506
20162	21506
20162	21506
20162	21506
20162	21506
20162	21506
20162	21506
20162	21506
20166	21504
20166	21504
20178	21502
20178	21502
20182	21498
20182	21498
20182	21498
20182	21498
20182	21498
20182	21498
20182	21498
20182	21498
20182	21498
20182	21498
20182	21498
20182	21498
20182	21498
20186	21496
20186	21496
20186	21496
20186	21496
20186	21496
20186	21496
20186	21496
20186	21496
20186	21496
20186	21496
20194	21494
20194	21494
20194	21494
20194	21494
20194	21494
20194	21494
20194	21494
20194	21494
20196	21492
20196	21492
20196	21492
20196	21492
20204	21490
20204	21490
20208	21488
20208	21488
20208	21488
20208	21488
20214	21486
20214	21486
20214	21486
20214	21486
20220	21484
20220	21484
20220	21484
20220	21484
20220	21484
20220	21484
20220	21484
20220	21484
20220	21484
20220	21484
20226	21480
20226	21480
20232	21478
20232	21478
20232	21478
20238	21476
20238	21476
20238	21476
20238	21476
20238	21476
20238	21476
20238	21476
20238	21476
20238	21476
20238	21476
20244	21474
20244	21474
20244	21474
20244	21474
20248	21472
20248	21472
20260	21468
20260	21468
20262	21466
20262	21466
20262	21466
20272	21462
20284	21460
20284	21460
20292	21454
20292	21454
20292	21454
20292	21454
20292	21454
20292	21454
20292	21454
20296	21450
20296	21450
20296	21450
20296	21450
20298	21448
20298	21448
20298	21448
20298	21448
20298	21448
20298	21448
20298	21448
20298	21448
20310	21446
20310	21446
20316	21442
20316	21442
20316	21442
20320	21440
20322	21438
20322	21438
20322	21438
20322	21438
20322	21438
20322	21438
20336	21436
20336	21436
20342	21432
20348	21428
20360	21424
20360	21424
20360	21424
20360	21424
20364	21422
20364	21422
20364	21422
20370	21418
20370	21418
20370	21418
20370	21418
20370	21418
20370	21418
20370	21418
20370	21418
20370	21418
20374	21414
20384	21412
20388	21410
20394	21406
20394	21406
20394	21406
20394	21406
20396	21404
20396	21404
20396	21404
20396	21404
20396	21404
20396	21404
20396	21404
20398	21402
20398	21402
20408	21400
20408	21400
20414	21396
20414	21396
20414	21396
20414	21396
20414	21396
20414	21396
20414	21396
20418	21394
20418	21394
20418	21394
20428	21392
20428	21392
20434	21388
20440	21386
20440	21386
20446	21382
20446	21382
20446	21382
20446	21382
20446	21382
20446	21382
20446	21382
20450	21380
20456	21376
20464	21374
20466	21370
20466	21370
20470	21366
20470	21366
20470	21366
20470	21366
20470	21366
20470	21366
20470	21366
20470	21366
20470	21366
20470	21366
20470	21366
20470	21366
20470	21366
20470	21366
20470	21366
20470	21366
20472	21364
20472	21364
20472	21364
20472	21364
20472	21364
20472	21364
20472	21364
20472	21364
20480	21362
20480	21362
20480	21362
20480	21362
20480	21362
20486	21360
20494	21358
20494	21358
20498	21354
20498	21354
20512	21350
20518	21344
20522	21342
20522	21342
20526	21340
20526	21340
20538	21338
20540	21334
20540	21334
20546	21330
20546	21330
20546	21330
20546	21330
20554	21324
20560	21320
20560	21320
20560	21320
20562	21318
20562	21318
20562	21318
20562	21318
20568	21314
20572	21312
20574	21308
20574	21308
20574	21308
20574	21308
20574	21308
20574	21308
20574	21308
20574	21308
20580	21306
20580	21306
20590	21304
20594	21302
20600	21300
20602	21294
20602	21294
20602	21294
20602	21294
20604	21292
20606	21290
20606	21290
20608	21288
20608	21288
20608	21288
20608	21288
20612	21286
20612	21286
20612	21286
20612	21286
20624	21284
20628	21276
20628	21276
20628	21276
20628	21276
20628	21276
20628	21276
20638	21272
20638	21272
20644	21270
20646	21260
20650	21258
20650	21258
20650	21258
20650	21258
20650	21258
20650	21258
20650	21258
20650	21258
20650	21258
20650	21258
20650	21258
20650	21258
20650	21258
20660	21254
20660	21254
20664	21250
20664	21250
20670	21244
20674	21240
20674	21240
20674	21240
20674	21240
20674	21240
20674	21240
20674	21240
20680	21238
20680	21238
20680	21238
20680	21238
20682	21234
20682	21234
20682	21234
20682	21234
20682	21234
20682	21234
20684	21232
20684	21232
20684	21232
20684	21232
20684	21232
20688	21230
20688	21230
20692	21226
20698	21224
20698	21224
20702	21222
20702	21222
20702	21222
20702	21222
20702	21222
20702	21222
20702	21222
20702	21222
20702	21222
20702	21222
20702	21222
20708	21216
20708	21216
20708	21216
20708	21216
20710	21212
20710	21212
20710	21212
20710	21212
20710	21212
20710	21212
20712	21210
20712	21210
20712	21210
20716	21208
20718	21206
20718	21206
20718	21206
20722	21204
20724	21200
20724	21200
20724	21200
20728	21198
20734	21194
20738	21190
20746	21186
20746	21186
20750	21180
20752	21176
20752	21176
20752	21176
20752	21176
20752	21176
20752	21176
20752	21176
20752	21176
20752	21176
20754	21174
20754	21174
20754	21174
20754	21174
20754	21174
20758	21172
20758	21172
20758	21172
20758	21172
20758	21172
20760	21168
20760	21168
20760	21168
20760	21168
20764	21166
20764	21166
20764	21166
20768	21164
20768	21164
20768	21164
20768	21164
20768	21164
20768	21164
20768	21164
20772	21162
20772	21162
20778	21158
20778	21158
20778	21158
20778	21158
20780	21152
20780	21152
20788	21150
20788	21150
20796	21144
20796	21144
20796	21144
20796	21144
20796	21144
20796	21144
20796	21144
20796	21144
20804	21138
20804	21138
20804	21138
20804	21138
20806	21136
20806	21136
20806	21136
20806	21136
20808	21130
20808	21130
20808	21130
20808	21130
20810	21128
20810	21128
20810	21128
20810	21128
20810	21128
20810	21128
20810	21128
20810	21128
20812	21126
20812	21126
20812	21126
20812	21126
20812	21126
20812	21126
20812	21126
20816	21124
20816	21124
20816	21124
20816	21124
20822	21120
20822	21120
20822	21120
20822	21120
20822	21120
20822	21120
20822	21120
20822	21120
20826	21116
20826	21116
20830	21114
20830	21114
20830	21114
20830	21114
20832	21112
20832	21112
20832	21112
20832	21112
20836	21108
20836	21108
20836	21108
20836	21108
20838	21104
20842	21102
20842	21102
20844	21100
20844	21100
20846	21096
20846	21096
20846	21096
20846	21096
20854	21094
20854	21094
20856	21088
20856	21088
20856	21088
20856	21088
20856	21088
20856	21088
20856	21088
20856	21088
20856	21088
20856	21088
20856	21088
20856	21088
20856	21088
20856	21088
20856	21088
20856	21088
20856	21088
20856	21088
20864	21086
20866	21080
20866	21080
20866	21080
20868	21078
20868	21078
20872	21076
20872	21076
20872	21076
20872	21076
20872	21076
20872	21076
20876	21070
20876	21070
20876	21070
20876	21070
20878	21068
20878	21068
20878	21068
20882	21066
20882	21066
20882	21066
20882	21066
20882	21066
20882	21066
20882	21066
20888	21062
20888	21062
20888	21062
20888	21062
20888	21062
20888	21062
20888	21062
20888	21062
20890	21058
20890	21058
20890	21058
20890	21058
20892	21056
20892	21056
20892	21056
20892	21056
20898	21054
20898	21054
20898	21054
20898	21054
20902	21048
20902	21048
20902	21048
20904	21046
20906	21044
20906	21044
20906	21044
20906	21044
20906	21044
20906	21044
20906	21044
20906	21044
20906	21044
20906	21044
20906	21044
20906	21044
20908	21042
20908	21042
20912	21040
20912	21040
20914	21036
20914	21036
20916	21032
20916	21032
20916	21032
20916	21032
20916	21032
20916	21032
20916	21032
20916	21032
20916	21032
20916	21032
20916	21032
20916	21032
20916	21032
20916	21032
20916	21032
20916	21032
20916	21032
20918	21030
20918	21030
20918	21030
20922	21026
20922	21026
20922	21026
20922	21026
20922	21026
20928	21024
20932	21018
20932	21018
20932	21018
20932	21018
20932	21018
20932	21018
20932	21018
20932	21018
20932	21018
20932	21018
20932	21018
20932	21018
20938	21016
20938	21016
20942	21010
20942	21010
20942	21010
20942	21010
20944	21006
20944	21006
20944	21006
20944	21006
20944	21006
20944	21006
20944	21006
20944	21006
20944	21006
20944	21006
20944	21006
20944	21006
20944	21006
20944	21006
20944	21006
20944	21006
20944	21006
20944	21006
20944	21006
20944	21006
20946	21004
20946	21004
20946	21004
20946	21004
20946	21004
20946	21004
20946	21004
20946	21004
20948	21002
20948	21002
20948	21002
20948	21002
20950	21000
20950	21000
20950	21000
20950	21000
20950	21000
20950	21000
20950	21000
20950	21000
20950	21000
20950	21000
20950	21000
20950	21000
20950	21000
20950	21000
20950	21000
20950	21000
20950	21000
20950	21000
20950	21000
20950	21000
20950	21000
20950	21000
20950	21000
20952	20998
20952	20998
20952	20998
20952	20998
20952	20998
20952	20998
20952	20998
20952	20998
20952	20998
20952	20998
20952	20998
20952	20998
20952	20998
20952	20998
20952	20998
20952	20998
20952	20998
20952	20998
20952	20998
20952	20998
20952	20998
20952	20998
20952	20998
20952	20998
20952	20998
20952	20998
20952	20998
20952	20998
20952	20998
20952	20998
20952	20998
20952	20998
20952	20998
20952	20998
20956	20996
20956	20996
20956	20996
20956	20996
20956	20996
20956	20996
20958	20994
20958	20994
20958	20994
20958	20994
20962	20992
20962	20992
20962	20992
20962	20992
20962	20992
20962	20992
20966	20986
20966	20986
20966	20986
20966	20986
20966	20986
20966	20986
20972	20984
20972	20984
20972	20984
20976	20978
20978	20974
20978	20974
20982	20972
20982	20972
20982	20972
20982	20972
20982	20972
20982	20972
20988	20966
20990	20962
20990	20962
20990	20962
20990	20962
20990	20962
20990	20962
20990	20962
20990	20962
20990	20962
20990	20962
20990	20962
20990	20962
20990	20962
20990	20962
20994	20958
20996	20954
20996	20954
20996	20954
20996	20954
20996	20954
20996	20954
20996	20954
20996	20954
20996	20954
20996	20954
20996	20954
20996	20954
20996	20954
20996	20954
20996	20954
20996	20954
20996	20954
20996	20954
20996	20954
20996	20954
20996	20954
20996	20954
20996	20954
20996	20954
20996	20954
20996	20954
20998	20952
20998	20952
20998	20952
20998	20952
20998	20952
20998	20952
20998	20952
20998	20952
20998	20952
20998	20952
20998	20952
20998	20952
20998	20952
20998	20952
20998	20952
20998	20952
20998	20952
20998	20952
20998	20952
20998	20952
20998	20952
20998	20952
20998	20952
20998	20952
20998	20952
20998	20952
20998	20952
20998	20952
20998	20952
20998	20952
20998	20952
20998	20952
20998	20952
20998	20952
20998	20952
20998	20952
20998	20952
20998	20952
20998	20952
20998	20952
20998	20952
20998	20952
20998	20952
20998	20952
20998	20952
20998	20952
20998	20952
20998	20952
20998	20952
20998	20952
20998	20952
20998	20952
20998	20952
20998	20952
20998	20952
20998	20952
20998	20952
20998	20952
20998	20952
20998	20952
20998	20952
20998	20952
20998	20952
20998	20952
20998	20952
20998	20952
20998	20952
20998	20952
20998	20952
20998	20952
20998	20952
20998	20952
20998	20952
20998	20952
20998	20952
20998	20952
20998	20952
20998	20952
20998	20952
20998	20952
20998	20952
20998	20952
20998	20952
20998	20952
20998	20952
20998	20952
20998	20952
21000	20950
21000	20950
21000	20950
21000	20950
21006	20948
21006	20948
21008	20942
21008	20942
21008	20942
21008	20942
21008	20942
21008	20942
21008	20942
21008	20942
21008	20942
21008	20942
21008	20942
21008	20942
21008	20942
21008	20942
21008	20942
21008	20942
21008	20942
21008	20942
21008	20942
21008	20942
21008	20942
21008	20942
21008	20942
21008	20942
21008	20942
21008	20942
21008	20942
21008	20942
21008	20942
21008	20942
21008	20942
21008	20942
21008	20942
21008	20942
21008	20942
21008	20942
21008	20942
21008	20942
21008	20942
21008	20942
21008	20942
21008	20942
21008	20942
21008	20942
21008	20942
21008	20942
21008	20942
21008	20942
21008	20942
21008	20942
21008	20942
21008	20942
21016	20940
21018	20934
21018	20934
21018	20934
21018	20934
21018	20934
21018	20934
21020	20932
21020	20932
21020	20932
21022	20930
21022	20930
21022	20930
21022	20930
21024	20926
21024	20926
21024	20926
21024	20926
21024	20926
21024	20926
21024	20926
21024	20926
21024	20926
21024	20926
21028	20924
21034	20920
21038	20912
21038	20912
21038	20912
21038	20912
21038	20912
21038	20912
21038	20912
21038	20912
21038	20912
21038	20912
21038	20912
21038	20912
21038	20912
21038	20912
21038	20912
21038	20912
21038	20912
21038	20912
21040	20908
21040	20908
21040	20908
21040	20908
21040	20908
21040	20908
21040	20908
21040	20908
21040	20908
21040	20908
21040	20908
21040	20908
21040	20908
21040	20908
21042	20906
21042	20906
21042	20906
21042	20906
21042	20906
21042	20906
21042	20906
21042	20906
21042	20906
21042	20906
21042	20906
21042	20906
21042	20906
21042	20906
21042	20906
21042	20906
21042	20906
21042	20906
21042	20906
21042	20906
21042	20906
21042	20906
21042	20906
21042	20906
21042	20906
21042	20906
21042	20906
21042	20906
21042	20906
21042	20906
21042	20906
21042	20906
21042	20906
21042	20906
21042	20906
21042	20906
21042	20906
21042	20906
21042	20906
21042	20906
21042	20906
21042	20906
21042	20906
21042	20906
21042	20906
21042	20906
21042	20906
21042	20906
21042	20906
21042	20906
21042	20906
21042	20906
21042	20906
21042	20906
21042	20906
21042	20906
21042	20906
21042	20906
21042	20906
21042	20906
21042	20906
21042	20906
21048	20904
21048	20904
21052	20898
21052	20898
21052	20898
21052	20898
21052	20898
21052	20898
21052	20898
21052	20898
21052	20898
21052	20898
21052	20898
21052	20898
21052	20898
21052	20898
21052	20898
21052	20898
21052	20898
21052	20898
21052	20898
21052	20898
21052	20898
21052	20898
21052	20898
21052	20898
21052	20898
21052	20898
21052	20898
21052	20898
21052	20898
21052	20898
21052	20898
21052	20898
21052	20898
21052	20898
21052	20898
21052	20898
21052	20898
21052	20898
21052	20898
21052	20898
21052	20898
21052	20898
21052	20898
21052	20898
21052	20898
21052	20898
21052	20898
21052	20898
21052	20898
21052	20898
21052	20898
21052	20898
21052	20898
21052	20898
21052	20898
21052	20898
21052	20898
21052	20898
21052	20898
21052	20898
21052	20898
21052	20898
21052	20898
21052	20898
21052	20898
21052	20898
21052	20898
21052	20898
21052	20898
21052	20898
21052	20898
21052	20898
21056	20894
21056	20894
21056	20894
21056	20894
21060	20890
21060	20890
21060	20890
21060	20890
21060	20890
21060	20890
21062	20886
21062	20886
21062	20886
21062	20886
21062	20886
21062	20886
21062	20886
21062	20886
21064	20884
21064	20884
21064	20884
21064	20884
21064	20884
21064	20884
21064	20884
21064	20884
21064	20884
21064	20884
21064	20884
21064	20884
21064	20884
21066	20882
21066	20882
21068	20878
21072	20876
21072	20876
21076	20870
21076	20870
21076	20870
21078	20868
21078	20868
21080	20866
21080	20866
21080	20866
21080	20866
21080	20866
21080	20866
21080	20866
21082	20864
21086	20862
21086	20862
21086	20862
21086	20862
21086	20862
21086	20862
21086	20862
21086	20862
21086	20862
21086	20862
21090	20856
21090	20856
21090	20856
21090	20856
21092	20852
21092	20852
21092	20852
21092	20852
21092	20852
21092	20852
21100	20850
21102	20844
21102	20844
21102	20844
21102	20844
21102	20844
21102	20844
21102	20844
21102	20844
21102	20844
21102	20844
21104	20838
21104	20838
21104	20838
21104	20838
21110	20836
21110	20836
21110	20836
21114	20828
21114	20828
21120	20822
21120	20822
21120	20822
21120	20822
21120	20822
21120	20822
21120	20822
21120	20822
21120	20822
21120	20822
21120	20822
21122	20818
21122	20818
21122	20818
21122	20818
21122	20818
21124	20814
21124	20814
21126	20812
21126	20812
21128	20810
21130	20808
21130	20808
21130	20808
21130	20808
21130	20808
21130	20808
21130	20808
21130	20808
21130	20808
21130	20808
21130	20808
21130	20808
21130	20808
21130	20808
21130	20808
21130	20808
21130	20808
21130	20808
21130	20808
21130	20808
21130	20808
21130	20808
21130	20808
21130	20808
21130	20808
21130	20808
21130	20808
21130	20808
21134	20804
21134	20804
21138	20802
21138	20802
21140	20796
21140	20796
21140	20796
21140	20796
21142	20792
21142	20792
21142	20792
21142	20792
21142	20792
21142	20792
21142	20792
21142	20792
21142	20792
21142	20792
21142	20792
21142	20792
21142	20792
21142	20792
21142	20792
21142	20792
21142	20792
21142	20792
21142	20792
21142	20792
21142	20792
21142	20792
21142	20792
21142	20792
21142	20792
21142	20792
21142	20792
21142	20792
21142	20792
21142	20792
21142	20792
21142	20792
21142	20792
21142	20792
21142	20792
21142	20792
21142	20792
21142	20792
21142	20792
21142	20792
21144	20788
21144	20788
21144	20788
21144	20788
21152	20786
21152	20786
21152	20786
21152	20786
21152	20786
21156	20780
21156	20780
21156	20780
21158	20774
21160	20772
21160	20772
21164	20766
21166	20764
21166	20764
21166	20764
21166	20764
21168	20762
21168	20762
21168	20762
21168	20762
21168	20762
21168	20762
21168	20762
21168	20762
21168	20762
21168	20762
21168	20762
21168	20762
21168	20762
21168	20762
21168	20762
21168	20762
21168	20762
21168	20762
21168	20762
21168	20762
21168	20762
21168	20762
21168	20762
21168	20762
21168	20762
21168	20762
21172	20760
21174	20756
21176	20754
21176	20754
21176	20754
21176	20754
21178	20748
21178	20748
21178	20748
21178	20748
21178	20748
21180	20746
21180	20746
21180	20746
21188	20744
21192	20734
21194	20730
21194	20730
21194	20730
21196	20726
21196	20726
21196	20726
21196	20726
21196	20726
21196	20726
21196	20726
21196	20726
21196	20726
21196	20726
21196	20726
21196	20726
21196	20726
21196	20726
21196	20726
21196	20726
21196	20726
21196	20726
21196	20726
21196	20726
21196	20726
21196	20726
21196	20726
21196	20726
21196	20726
21200	20724
21202	20722
21206	20716
21206	20716
21206	20716
21206	20716
21206	20716
21206	20716
21206	20716
21206	20716
21206	20716
21206	20716
21206	20716
21206	20716
21206	20716
21206	20716
21206	20716
21206	20716
21206	20716
21206	20716
21210	20714
21212	20708
21212	20708
21212	20708
21212	20708
21218	20704
21218	20704
21218	20704
21218	20704
21218	20704
21218	20704
21218	20704
21218	20704
21218	20704
21218	20704
21218	20704
21218	20704
21218	20704
21222	20698
21222	20698
21222	20698
21226	20692
21228	20690
21228	20690
21230	20686
21230	20686
21230	20686
21230	20686
21234	20682
21234	20682
21238	20676
21238	20676
21238	20676
21238	20676
21238	20676
21238	20676
21238	20676
21238	20676
21238	20676
21238	20676
21238	20676
21238	20676
21238	20676
21238	20676
21238	20676
21238	20676
21238	20676
21238	20676
21238	20676
21238	20676
21238	20676
21238	20676
21238	20676
21238	20676
21240	20672
21242	20668
21242	20668
21242	20668
21242	20668
21246	20666
21246	20666
21248	20664
21248	20664
21250	20660
21250	20660
21250	20660
21254	20654
21258	20650
21258	20650
21258	20650
21258	20650
21258	20650
21258	20650
21258	20650
21258	20650
21258	20650
21258	20650
21258	20650
21258	20650
21262	20644
21264	20640
21266	20636
21266	20636
21270	20632
21270	20632
21270	20632
21270	20632
21270	20632
21270	20632
21272	20630
21272	20630
21272	20630
21272	20630
21274	20628
21278	20624
21278	20624
21280	20620
21280	20620
21280	20620
21282	20616
21282	20616
21282	20616
21282	20616
21282	20616
21282	20616
21282	20616
21282	20616
21284	20614
21288	20610
21288	20610
21292	20606
21292	20606
21292	20606
21296	20604
21300	20596
21302	20590
21302	20590
21302	20590
21304	20586
21306	20584
21306	20584
21310	20580
21312	20576
21312	20576
21312	20576
21312	20576
21312	20576
21314	20572
21316	20568
21316	20568
21316	20568
21316	20568
21316	20568
21320	20566
21320	20566
21320	20566
21322	20562
21322	20562
21322	20562
21322	20562
21322	20562
21322	20562
21322	20562
21322	20562
21322	20562
21322	20562
21322	20562
21322	20562
21322	20562
21322	20562
21322	20562
21322	20562
21324	20560
21326	20556
21326	20556
21326	20556
21328	20554
21328	20554
21328	20554
21330	20552
21330	20552
21330	20552
21330	20552
21330	20552
21330	20552
21332	20548
21332	20548
21332	20548
21334	20546
21334	20546
21334	20546
21338	20540
21338	20540
21338	20540
21338	20540
21338	20540
21338	20540
21340	20538
21340	20538
21340	20538
21340	20538
21340	20538
21340	20538
21344	20532
21346	20530
21346	20530
21346	20530
21348	20524
21352	20522
21356	20516
21360	20512
21360	20512
21364	20506
21368	20496
21370	20490
21370	20490
21370	20490
21372	20488
21372	20488
21372	20488
21372	20488
21372	20488
21376	20486
21376	20486
21376	20486
21378	20480
21380	20478
21382	20476
21384	20472
21386	20468
21390	20464
21392	20462
21394	20458
21398	20450
21398	20450
21402	20448
21404	20438
21406	20436
21406	20436
21406	20436
21408	20434
21412	20430
21412	20430
21414	20422
21414	20422
21420	20420
21422	20408
21426	20400
21426	20400
21426	20400
21426	20400
21426	20400
21428	20396
21430	20392
21430	20392
21430	20392
21430	20392
21430	20392
21430	20392
21430	20392
21430	20392
21430	20392
21430	20392
21430	20392
21432	20386
21432	20386
21432	20386
21432	20386
21432	20386
21438	20382
21438	20382
21438	20382
21440	20378
21442	20372
21442	20372
21442	20372
21442	20372
21448	20368
21452	20356
21454	20354
21456	20350
21458	20340
21458	20340
21458	20340
21460	20336
21464	20334
21466	20332
21468	20320
21468	20320
21468	20320
21468	20320
21468	20320
21468	20320
21468	20320
21468	20320
21468	20320
21468	20320
21468	20320
21468	20320
21468	20320
21472	20314
21472	20314
21478	20306
21482	20298
21484	20292
21484	20292
21484	20292
21486	20288
21486	20288
21486	20288
21490	20282
21490	20282
21490	20282
21492	20276
21496	20270
21496	20270
21496	20270
21496	20270
21496	20270
21496	20270
21496	20270
21496	20270
21496	20270
21498	20268
21502	20262
21504	20252
21504	20252
21504	20252
21504	20252
21504	20252
21504	20252
21504	20252
21508	20246
21514	20240
21516	20228
21516	20228
21518	20222
21518	20222
21518	20222
21518	20222
21518	20222
21518	20222
21518	20222
21518	20222
21518	20222
21518	20222
21518	20222
21518	20222
21518	20222
21518	20222
21520	20218
21520	20218
21520	20218
21522	20216
21522	20216
21522	20216
21522	20216
21524	20210
21524	20210
21526	20206
21530	20202
21530	20202
21530	20202
21530	20202
21530	20202
21530	20202
21532	20194
21532	20194
21536	20188
21540	20184
21544	20176
21546	20166
21548	20160
21550	20152
21550	20152
21550	20152
21550	20152
21550	20152
21550	20152
21552	20150
21552	20150
21552	20150
21552	20150
21552	20150
21552	20150
21554	20148
21556	20146
21558	20138
21560	20136
21560	20136
21560	20136
21562	20130
21562	20130
21564	20128
21566	20124
21570	20116
21570	20116
21572	20108
21574	20104
21574	20104
21576	20098
21578	20096
21578	20096
21578	20096
21578	20096
21578	20096
21578	20096
21578	20096
21578	20096
21580	20090
21580	20090
21584	20088
21588	20078
21588	20078
21588	20078
21588	20078
21590	20068
21592	20064
21596	20060
21596	20060
21598	20048
21600	20046
21600	20046
21602	20042
21602	20042
21602	20042
21608	20036
21610	20024
21610	20024
21612	20012
21612	20012
21612	20012
21612	20012
21612	20012
21612	20012
21612	20012
21612	20012
21612	20012
21612	20012
21612	20012
21612	20012
21614	20010
21614	20010
21614	20010
21614	20010
21614	20010
21614	20010
21614	20010
21614	20010
21614	20010
21616	20008
21616	20008
21616	20008
21616	20008
21616	20008
21620	20000
21620	20000
21622	19998
21624	19992
21628	19984
21628	19984
21632	19972
21634	19962
21634	19962
21634	19962
21634	19962
21634	19962
21634	19962
21634	19962
21634	19962
21634	19962
21636	19960
21636	19960
21636	19960
21638	19956
21638	19956
21638	19956
21638	19956
21640	19950
21640	19950
21640	19950
21640	19950
21640	19950
21640	19950
21646	19946
21646	19946
21646	19946
21646	19946
21648	19936
21652	19926
21654	19920
21654	19920
21654	19920
21654	19920
21656	19914
21656	19914
21658	19910
21658	19910
21660	19902
21660	19902
21664	19894
21666	19890
21668	19882
21670	19878
21674	19872
21674	19872
21676	19862
21682	19858
21684	19842
21684	19842
21686	19840
21686	19840
21686	19840
21690	19834
21692	19820
21694	19818
21694	19818
21694	19818
21698	19810
21700	19798
21702	19792
21704	19790
21706	19784
21710	19778
21712	19772
21712	19772
21714	19754
21714	19754
21714	19754
21716	19750
21716	19750
21716	19750
21722	19746
21728	19728
21730	19712
21734	19706
21736	19700
21740	19690
21742	19678
21744	19670
21748	19668
21750	19652
21752	19644
21752	19644
21752	19644
21756	19642
21758	19622
21760	19620
21762	19614
21764	19606
21766	19604
21766	19604
21768	19592
21768	19592
21770	19590
21772	19582
21772	19582
21774	19580
21774	19580
21776	19574
21778	19564
21778	19564
21780	19556
21780	19556
21782	19550
21782	19550
21784	19540
21786	19534
21788	19528
21788	19528
21790	19518
21792	19512
21794	19506
21794	19506
21794	19506
21796	19502
21798	19500
21802	19488
21804	19470
21806	19466
21808	19454
21810	19450
21812	19442
21818	19426
21822	19410
21824	19390
21828	19382
21830	19378
21832	19356
21832	19356
21832	19356
21834	19354
21836	19350
21840	19332
21840	19332
21840	19332
21844	19326
21846	19294
21846	19294
21846	19294
21850	19288
21852	19272
21852	19272
21852	19272
21854	19264
21856	19252
21858	19234
21858	19234
21858	19234
21860	19224
21860	19224
21860	19224
21862	19218
21862	19218
21864	19208
21866	19194
21868	19192
21870	19176
21872	19166
21874	19154
21876	19140
21878	19122
21878	19122
21880	19116
21880	19116
21882	19112
21884	19090
21886	19074
21888	19064
21890	19052
21892	19050
21892	19050
21896	19020
21898	18998
21898	18998
21898	18998
21898	18998
21898	18998
21900	18992
21900	18992
21900	18992
21900	18992
21902	18982
21904	18960
21904	18960
21904	18960
21906	18954
21910	18938
21910	18938
21910	18938
21910	18938
21912	18904
21912	18904
21914	18896
21918	18868
21920	18830
21922	18826
21924	18806
21926	18790
21928	18754
21928	18754
21928	18754
21930	18750
21932	18718
21934	18704
21934	18704
21936	18678
21936	18678
21938	18656
21942	18626
21944	18594
21946	18534
21946	18534
21946	18534
21948	18508
21948	18508
21948	18508
21950	18504
21950	18504
21954	18416
21956	18322
21958	18270
